DIMENSION :14
NODE_COORD_SECTION
1 -65.88466615426438 68.26719286019872
2 -5.1365222188834565 -76.98374015519545
3 -27.784069567292974 78.74556778921692
4 -50.475757767938404 7.042119110717593
5 -4.699938640505977 66.65546651005849
6 -66.40685067980145 35.54982122075856
7 96.8835153753077 -63.19010936967373
8 42.84244620294143 -31.161202827864344
9 -46.71616903798083 -33.443812277236546
10 -7.665253111412866 -24.39986410542228
11 -36.471118850882874 -50.35296965260685
12 -79.98003786709565 -93.6969323684053
13 11.90131185237513 64.62859593201031
14 28.803676865534925 92.89622043318954
EOF
